Problem:    
Rows:       256
Columns:    89 (72 integer, 72 binary)
Non-zeros:  960
Status:     INTEGER OPTIMAL
Objective:  value = 42.170183 (MINimum)

   No.   Row name        Activity     Lower bound   Upper bound
------ ------------    ------------- ------------- -------------
     1 r.5                   1042.17             0               
     2 r.6                  -980.455      -992.238               
     3 r.7                   42.1702             0               
     4 r.8                   23.5009      -993.199               
     5 r.9                   1042.17             0               
     6 r.10                 -970.009      -991.332               
     7 r.11                  42.1702             0               
     8 r.12                   33.782      -992.398               
     9 r.13                  42.1702             0               
    10 r.14                  31.7688      -986.665               
    11 r.15                  1042.17             0               
    12 r.16                 -978.512      -990.006               
    13 r.17                  1042.17             0               
    14 r.18                  -991.03      -993.343               
    15 r.19                  42.1702             0               
    16 r.20                  14.1653      -994.235               
    17 r.21                  42.1702             0               
    18 r.22                  21.4877      -990.134               
    19 r.23                  1042.17             0               
    20 r.24                 -988.507      -992.736               
    21 r.25                  1042.17             0               
    22 r.26                 -999.179      -999.179               
    23 r.27                  42.1702             0               
    24 r.28                 -989.029      -989.029               
    25 r.29                  42.1702             0               
    26 r.30                  42.1702      -970.418               
    27 r.31                  1042.17             0               
    28 r.32                 -968.231      -989.719               
    29 r.33                  42.1702             0               
    30 r.34                  42.1702      -970.455               
    31 r.35                  1042.17             0               
    32 r.36                  -957.83      -989.599               
    33 r.37                        1             1             = 
    34 r.38                        1             1             = 
    35 r.39                        1             1             = 
    36 r.40                        1             1             = 
    37 r.41                        1             1             = 
    38 r.42                        1             1             = 
    39 r.43                        1             1             = 
    40 r.44                        1             1             = 
    41 r.45                        2             2               
    42 r.46                       -2         -1001               
    43 r.47                 -991.332      -991.332               
    44 r.48                     1000             2               
    45 r.49                    -1000         -1001               
    46 r.50                  2012.29      -992.398               
    47 r.51                     1001             2               
    48 r.52                    -1001         -1001               
    49 r.53                  2010.45      -986.665               
    50 r.54                     1001             2               
    51 r.55                    -1001         -1001               
    52 r.56                     2000      -990.006               
    53 r.57                        2             2               
    54 r.58                       -2         -1001               
    55 r.59                 -12.3529      -993.343               
    56 r.60                     1000             2               
    57 r.61                    -1000         -1001               
    58 r.62                  1992.68      -994.235               
    59 r.63                     1001             2               
    60 r.64                    -1001         -1001               
    61 r.65                  2000.16      -990.134               
    62 r.66                     1001             2               
    63 r.67                    -1001         -1001               
    64 r.68                  1990.01      -992.736               
    65 r.69                 -982.768      -992.238               
    66 r.70                  21.1879      -993.199               
    67 r.71                   9.8917      -992.238               
    68 r.72                  1013.85      -993.199               
    69 r.73                  20.8472      -970.418               
    70 r.74                 -989.554      -989.719               
    71 r.75                  20.6825      -970.418               
    72 r.76                 -989.719      -989.719               
    73 r.77                     1001             2               
    74 r.78                    -1001         -1001               
    75 r.79                  2020.85      -970.455               
    76 r.80                     1001             2               
    77 r.81                    -1001         -1001               
    78 r.82                  2020.68      -989.599               
    79 r.83                        2             2               
    80 r.84                       -2         -1001               
    81 r.85                  987.777       7.76168               
    82 r.86                     1000             2               
    83 r.87                    -1000         -1001               
    84 r.88                  1991.73       6.80121               
    85 r.89                     1001             2               
    86 r.90                    -1001         -1001               
    87 r.91                     2000      -986.665               
    88 r.92                     1001             2               
    89 r.93                    -1001         -1001               
    90 r.94                  1989.72      -990.006               
    91 r.95                        2             2               
    92 r.96                       -2         -1001               
    93 r.97                 -22.7987      -993.343               
    94 r.98                     1000             2               
    95 r.99                    -1000         -1001               
    96 r.100                  1982.4      -994.235               
    97 r.101                    1001             2               
    98 r.102                   -1001         -1001               
    99 r.103                 1989.72      -990.134               
   100 r.104                    1001             2               
   101 r.105                   -1001         -1001               
   102 r.106                 1979.72      -992.736               
   103 r.107                -972.322      -991.332               
   104 r.108                  31.469      -992.398               
   105 r.109                 20.3375      -991.332               
   106 r.110                 1024.13      -992.398               
   107 r.111                    1001             2               
   108 r.112                   -1001         -1001               
   109 r.113                  2010.4      -970.418               
   110 r.114                    1001             2               
   111 r.115                   -1001         -1001               
   112 r.116                    2000      -989.719               
   113 r.117                 10.4014      -970.455               
   114 r.118                -989.599      -989.599               
   115 r.119                 10.4014      -970.455               
   116 r.120                -989.599      -989.599               
   117 r.121                    1001             2               
   118 r.122                   -1001         -1001               
   119 r.123                 1987.78       7.76168               
   120 r.124                    1001             2               
   121 r.125                   -1001         -1001               
   122 r.126                 2002.01       6.80121               
   123 r.127                    1001             2               
   124 r.128                   -1001         -1001               
   125 r.129                 1998.22        8.6683               
   126 r.130                    1001             2               
   127 r.131                   -1001         -1001               
   128 r.132                 2012.29        7.6025               
   129 r.133                 20.2753      -986.665               
   130 r.134                -990.006      -990.006               
   131 r.135                 20.2753      -986.665               
   132 r.136                -990.006      -990.006               
   133 r.137                    1000             2               
   134 r.138                   -1000         -1001               
   135 r.139                 1989.72      -990.134               
   136 r.140                       2             2               
   137 r.141                      -2         -1001               
   138 r.142                -9.99423      -992.736               
   139 r.143                 29.4558      -986.665               
   140 r.144                -980.825      -990.006               
   141 r.145                 1022.12      -986.665               
   142 r.146                 11.8339      -990.006               
   143 r.147                    1000             2               
   144 r.148                   -1000         -1001               
   145 r.149                  2010.4      -970.418               
   146 r.150                       2             2               
   147 r.151                      -2         -1001               
   148 r.152                -989.719      -989.719               
   149 r.153                 10.4014      -970.455               
   150 r.154                -989.599      -989.599               
   151 r.155                 20.6825      -970.455               
   152 r.156                -979.317      -989.599               
   153 r.157                       2             2               
   154 r.158                      -2         -1001               
   155 r.159                   8.052       7.76168               
   156 r.160                    1000             2               
   157 r.161                   -1000         -1001               
   158 r.162                 2012.01       6.80121               
   159 r.163                       2             2               
   160 r.164                      -2         -1001               
   161 r.165                 18.4978        8.6683               
   162 r.166                    1000             2               
   163 r.167                   -1000         -1001               
   164 r.168                 2022.29        7.6025               
   165 r.169                    1001             2               
   166 r.170                   -1001         -1001               
   167 r.171                 2009.99      -990.134               
   168 r.172                    1001             2               
   169 r.173                   -1001         -1001               
   170 r.174                    2000      -992.736               
   171 r.175                -993.343      -993.343               
   172 r.176                 11.8523      -994.235               
   173 r.177               -0.683652      -993.343               
   174 r.178                 1004.51      -994.235               
   175 r.179                    1001             2               
   176 r.180                   -1001         -1001               
   177 r.181                 2030.68      -970.418               
   178 r.182                    1001             2               
   179 r.183                   -1001         -1001               
   180 r.184                 2020.28      -989.719               
   181 r.185                 30.6767      -970.455               
   182 r.186                -969.323      -989.599               
   183 r.187                 30.6767      -970.455               
   184 r.188                -969.323      -989.599               
   185 r.189                    1001             2               
   186 r.190                   -1001         -1001               
   187 r.191                 1998.06       7.76168               
   188 r.192                    1001             2               
   189 r.193                   -1001         -1001               
   190 r.194                 2012.01       6.80121               
   191 r.195                    1001             2               
   192 r.196                   -1001         -1001               
   193 r.197                  2008.5        8.6683               
   194 r.198                    1001             2               
   195 r.199                   -1001         -1001               
   196 r.200                 2022.29        7.6025               
   197 r.201                    1000             2               
   198 r.202                   -1000         -1001               
   199 r.203                 2010.28       13.3354               
   200 r.204                       2             2               
   201 r.205                      -2         -1001               
   202 r.206                 9.99423       9.99423               
   203 r.207                    1001             2               
   204 r.208                   -1001         -1001               
   205 r.209                 1987.48        6.6571               
   206 r.210                    1001             2               
   207 r.211                   -1001         -1001               
   208 r.212                 2002.67       5.76503               
   209 r.213                 19.1747      -990.134               
   210 r.214                 -990.82      -992.736               
   211 r.215                 1011.83      -990.134               
   212 r.216                  1.8397      -992.736               
   213 r.217                 20.6825      -970.418               
   214 r.218                -989.719      -989.719               
   215 r.219                 30.6767      -970.418               
   216 r.220                -979.725      -989.719               
   217 r.221                 20.6825      -970.455               
   218 r.222                -979.317      -989.599               
   219 r.223                 30.6767      -970.455               
   220 r.224                -969.323      -989.599               
   221 r.225                    1001             2               
   222 r.226                   -1001         -1001               
   223 r.227                 1987.82        8.6683               
   224 r.228                    1001             2               
   225 r.229                   -1001         -1001               
   226 r.230                 2002.01        7.6025               
   227 r.231                    1000             2               
   228 r.232                   -1000         -1001               
   229 r.233                  1989.6       13.3354               
   230 r.234                       2             2               
   231 r.235                      -2         -1001               
   232 r.236                 989.719       9.99423               
   233 r.237                    1001             2               
   234 r.238                   -1001         -1001               
   235 r.239                  1966.8        6.6571               
   236 r.240                    1001             2               
   237 r.241                   -1001         -1001               
   238 r.242                  1982.4       5.76503               
   239 r.243                    1000             2               
   240 r.244                   -1000         -1001               
   241 r.245                    2000      -970.455               
   242 r.246                       2             2               
   243 r.247                      -2         -1001               
   244 r.248                -989.599      -989.599               
   245 r.249                    1001             2               
   246 r.250                   -1001         -1001               
   247 r.251                 1977.38       7.76168               
   248 r.252                    1001             2               
   249 r.253                   -1001         -1001               
   250 r.254                 1981.33       6.80121               
   251 r.255                    1000             2               
   252 r.256                   -1000         -1001               
   253 r.257                    2000       29.5821               
   254 r.258                       2             2               
   255 r.259                      -2         -1001               
   256 r.260                 989.599       10.2811               

   No. Column name       Activity     Lower bound   Upper bound
------ ------------    ------------- ------------- -------------
     1 tt                    42.1702             0               
     2 s_1_1        *              1             0             1 
     3 t_1_1                 20.8472             0               
     4 s_1_7        *              0             0             1 
     5 s_2_1        *              0             0             1 
     6 t_2_1                 20.6825             0               
     7 s_2_7        *              1             0             1 
     8 s_1_2        *              1             0             1 
     9 t_1_2                 10.4014             0               
    10 s_1_8        *              0             0             1 
    11 s_2_2        *              0             0             1 
    12 t_2_2                 10.4014             0               
    13 s_2_8        *              1             0             1 
    14 s_1_3        *              0             0             1 
    15 t_1_3                 10.4014             0               
    16 s_2_3        *              1             0             1 
    17 t_2_3                 20.6825             0               
    18 s_1_4        *              1             0             1 
    19 t_1_4                 30.6767             0               
    20 s_2_4        *              0             0             1 
    21 t_2_4                 30.6767             0               
    22 s_1_5        *              0             0             1 
    23 t_1_5                 20.6825             0               
    24 s_2_5        *              1             0             1 
    25 t_2_5                 30.6767             0               
    26 s_1_6        *              1             0             1 
    27 t_1_6                 39.8572             0               
    28 s_2_6        *              0             0             1 
    29 t_2_6                 1032.52             0               
    30 t_1_7                       0             0               
    31 t_2_7                 10.4014             0               
    32 t_1_8                       0             0               
    33 t_2_8                       0             0               
    34 r_1_1_2      *              0             0             1 
    35 u_1_1_2      *              1             0             1 
    36 r_2_1_2      *              1             0             1 
    37 u_2_1_2      *              0             0             1 
    38 r_1_1_3      *              1             0             1 
    39 u_1_1_3      *              0             0             1 
    40 r_2_1_3      *              1             0             1 
    41 u_2_1_3      *              0             0             1 
    42 r_1_1_4      *              0             0             1 
    43 u_1_1_4      *              0             0             1 
    44 r_2_1_4      *              1             0             1 
    45 u_2_1_4      *              0             0             1 
    46 r_1_1_5      *              1             0             1 
    47 u_1_1_5      *              0             0             1 
    48 r_2_1_5      *              1             0             1 
    49 u_2_1_5      *              0             0             1 
    50 r_1_1_8      *              1             0             1 
    51 u_1_1_8      *              0             0             1 
    52 r_2_1_8      *              1             0             1 
    53 u_2_1_8      *              0             0             1 
    54 r_1_2_3      *              1             0             1 
    55 u_1_2_3      *              0             0             1 
    56 r_2_2_3      *              1             0             1 
    57 u_2_2_3      *              0             0             1 
    58 r_1_2_4      *              0             0             1 
    59 u_1_2_4      *              0             0             1 
    60 r_2_2_4      *              1             0             1 
    61 u_2_2_4      *              0             0             1 
    62 r_1_2_5      *              1             0             1 
    63 u_1_2_5      *              0             0             1 
    64 r_2_2_5      *              1             0             1 
    65 u_2_2_5      *              0             0             1 
    66 r_1_2_7      *              1             0             1 
    67 u_1_2_7      *              0             0             1 
    68 r_2_2_7      *              1             0             1 
    69 u_2_2_7      *              0             0             1 
    70 r_1_3_5      *              1             0             1 
    71 u_1_3_5      *              0             0             1 
    72 r_2_3_5      *              0             0             1 
    73 u_2_3_5      *              0             0             1 
    74 r_1_3_7      *              1             0             1 
    75 u_1_3_7      *              0             0             1 
    76 r_2_3_7      *              0             0             1 
    77 u_2_3_7      *              1             0             1 
    78 r_1_4_5      *              1             0             1 
    79 u_1_4_5      *              0             0             1 
    80 r_2_4_5      *              1             0             1 
    81 u_2_4_5      *              0             0             1 
    82 r_1_4_7      *              1             0             1 
    83 u_1_4_7      *              0             0             1 
    84 r_2_4_7      *              1             0             1 
    85 u_2_4_7      *              0             0             1 
    86 r_1_7_8      *              1             0             1 
    87 u_1_7_8      *              0             0             1 
    88 r_2_7_8      *              0             0             1 
    89 u_2_7_8      *              1             0             1 

Integer feasibility conditions:

KKT.PE: max.abs.err = 2.27e-13 on row 22
        max.rel.err = 1.09e-16 on row 22
        High quality

KKT.PB: max.abs.err = 1.14e-13 on row 22
        max.rel.err = 1.14e-16 on row 22
        High quality

End of output
